100
1000
200
200
200
199
198
198
197
197
197
197
195
194
193
193
193
192
191
190
190
190
189
189
188
188
188
188
188
188
187
187
186
185
183
183
180
179
178
178
178
177
177
177
176
176
175
174
174
173
173
172
172
171
171
170
170
170
170
169
167
167
167
166
166
166
164
164
164
164
164
163
163
163
162
162
162
161
160
160
160
160
159
158
157
157
157
156
156
155
155
154
154
154
154
154
153
153
153
153
152
151
